n_res = 4;
rc = [ 36, 29, 45, 31 ];
n_tasks = 30;
d = [ 7, 4, 4, 5, 2, 1, 7, 3, 7, 6, 8, 3, 1, 8, 5, 3, 8, 2, 5, 7, 8, 8, 5, 7, 6, 4, 2, 7, 4, 10 ];
rr = [| 9, 0, 2, 10, 0, 8, 0, 3, 7, 5, 0, 10, 7, 4, 1, 0, 10, 8, 10, 0, 0, 9, 0, 10, 0, 6, 0, 0, 0, 3
      | 4, 0, 0, 9, 0, 0, 10, 10, 0, 0, 0, 0, 10, 2, 0, 0, 3, 0, 7, 0, 9, 2, 5, 0, 0, 0, 1, 0, 0, 0
      | 8, 3, 0, 5, 0, 0, 8, 0, 0, 9, 1, 0, 6, 10, 0, 3, 10, 0, 0, 7, 4, 6, 7, 7, 7, 0, 0, 0, 1, 5
      | 9, 0, 0, 3, 10, 0, 0, 5, 0, 7, 6, 0, 0, 0, 0, 7, 0, 5, 0, 2, 8, 0, 0, 0, 0, 2, 0, 3, 3, 0 |];
suc = [ { 4 },
       { 5, 7, 16 },
       { 8, 10, 17 },
       { 6, 19, 20 },
       { 14, 25 },
       { 13 },
       { 21 },
       { 9 },
       { 16 },
       { 11, 16 },
       { 12, 18, 23 },
       { 15 },
       { 22, 28 },
       { 26, 29 },
       { 28 },
       { 27 },
       { 19, 24 },
       { 24 },
       { 25, 29 },
       { 26, 30 },
       { 27 },
       { 24 },
       { 25 },
       { 30 },
       { 27 },
       { 28 },
       { 30 },
       {  },
       {  },
       {  } ];
